Input file: instance_23.lp
Input data:
num_squadre(3).
player(1, portiere, difensore).
player(2, portiere, attaccante).
player(3, attaccante, centrocampista).
player(4, difensore, portiere).
player(5, centrocampista, difensore).
player(6, difensore, portiere).
player(7, difensore, attaccante).
player(8, portiere, difensore).
player(9, portiere, difensore).
player(10, centrocampista, portiere).
player(11, attaccante, difensore).
player(12, difensore, portiere).
player(13, difensore, portiere).
player(14, attaccante, difensore).
player(15, centrocampista, portiere).
player(16, centrocampista, difensore).
player(17, difensore, portiere).
player(18, difensore, portiere).
player(19, portiere, difensore).
player(20, portiere, centrocampista).
player(21, portiere, centrocampista).
player(22, difensore, centrocampista).
player(23, difensore, centrocampista).
player(24, attaccante, difensore).
player(25, centrocampista, attaccante).
player(26, difensore, portiere).
player(27, centrocampista, portiere).
player(28, portiere, attaccante).
different_team(1, 2).
different_team(1, 3).
different_team(2, 3).
different_team(9, 21).

Output Clingo:
clingo version 5.7.1
Reading from ...ed-Reasoning-Project\Clingo\implASP.lp ...
Solving...
Answer: 1
assigned(1,2,difensore) assigned(2,1,attaccante) assigned(3,3,centrocampista) assigned(4,3,difensore) assigned(5,2,difensore) assigned(6,3,difensore) assigned(7,3,attaccante) assigned(8,3,portiere) assigned(9,2,portiere) assigned(10,1,portiere) assigned(11,3,difensore) assigned(12,1,difensore) assigned(13,1,difensore) assigned(14,3,difensore) assigned(15,1,centrocampista) assigned(16,3,centrocampista) assigned(17,3,difensore) assigned(18,3,difensore) assigned(19,3,difensore) assigned(20,2,centrocampista) assigned(21,1,centrocampista) assigned(22,2,centrocampista) assigned(23,1,centrocampista) assigned(24,2,difensore) assigned(25,3,centrocampista) assigned(26,1,difensore) assigned(27,2,centrocampista) assigned(28,2,attaccante) total_penalty(1)
Optimization: 1
Answer: 1
assigned(1,2,portiere) assigned(2,1,attaccante) assigned(3,3,centrocampista) assigned(4,3,difensore) assigned(5,1,centrocampista) assigned(6,2,difensore) assigned(7,3,attaccante) assigned(8,3,difensore) assigned(9,1,portiere) assigned(10,2,centrocampista) assigned(11,3,attaccante) assigned(12,3,difensore) assigned(13,1,difensore) assigned(14,3,attaccante) assigned(15,3,centrocampista) assigned(16,1,centrocampista) assigned(17,1,difensore) assigned(18,2,difensore) assigned(19,2,difensore) assigned(20,2,centrocampista) assigned(21,3,centrocampista) assigned(22,1,centrocampista) assigned(23,1,centrocampista) assigned(24,3,attaccante) assigned(25,1,centrocampista) assigned(26,3,portiere) assigned(27,2,centrocampista) assigned(28,2,attaccante) total_penalty(1)
Optimization: 1
OPTIMUM FOUND

Models       : 2+
  Optimum    : yes
Optimization : 1
Calls        : 1
Time         : 48.409s (Solving: 48.40s 1st Model: 0.00s Unsat: 0.00s)
CPU Time     : 46.453s

Tempo di esecuzione Clingo: 48.44 secondi
